p cnf 139 269
-43 6 0
-43 14 0
43 -6 -14 0
-44 1 0
-44 2 0
44 -1 -2 0
-45 3 0
-45 44 0
-46 1 0
-46 5 0
46 -1 -5 0
-47 10 0
-47 14 0
47 -10 -14 0
-48 8 0
-48 46 0
48 -8 -46 0
-49 9 0
-49 45 0
-50 15 0
-50 43 0
50 -15 -43 0
-51 48 0
-51 50 0
51 -48 -50 0
-52 9 0
-52 51 0
52 -9 -51 0
-53 -42 0
-53 52 0
53 42 -52 0
-54 10 0
-54 29 0
54 -10 -29 0
-55 48 0
-55 -54 0
55 -48 54 0
-56 4 0
-56 55 0
56 -4 -55 0
-57 1 0
-57 -56 0
57 -1 56 0
-58 28 0
-58 -57 0
58 -28 57 0
-59 7 4 0
-59 -7 -4 0
59 7 -4 0
59 -7 4 0
-60 10 0
-60 59 0
60 -10 -59 0
-61 29 0
-61 60 0
61 -29 -60 0
-62 48 0
-62 61 0
62 -48 -61 0
-63 8 0
-63 44 0
63 -8 -44 0
-64 4 0
-64 63 0
64 -4 -63 0
-65 7 0
-65 47 0
65 -7 -47 0
-66 64 0
-66 -65 0
66 -64 65 0
-67 -62 0
-67 -66 0
67 62 66 0
-68 22 0
-68 -67 0
68 -22 67 0
-69 -58 0
-69 -68 0
69 58 68 0
-70 -53 0
-70 69 0
70 53 -69 0
-71 -35 0
-71 70 0
71 35 -70 0
-72 35 0
-72 -70 0
72 -35 70 0
-73 7 0
-73 10 0
-74 11 0
-74 73 0
-75 12 0
-75 74 0
-76 49 0
-76 75 0
-77 13 0
-77 76 0
-78 24 0
-78 -57 0
78 -24 57 0
-79 19 0
-79 -67 0
79 -19 67 0
-80 -78 0
-80 -79 0
80 78 79 0
-81 -53 0
-81 80 0
81 53 -80 0
-82 -32 0
-82 81 0
82 32 -81 0
-83 32 0
-83 -81 0
83 -32 81 0
-84 25 0
-84 -57 0
84 -25 57 0
-85 20 0
-85 -67 0
85 -20 67 0
-86 -84 0
-86 -85 0
86 84 85 0
-87 -53 0
-87 86 0
87 53 -86 0
-88 33 0
-88 -87 0
88 -33 87 0
-89 -33 0
-89 87 0
89 33 -87 0
-90 26 0
-90 -57 0
90 -26 57 0
-91 21 0
-91 -67 0
91 -21 67 0
-92 -90 0
-92 -91 0
92 90 91 0
-93 -53 0
-93 92 0
93 53 -92 0
-94 34 0
-94 -93 0
94 -34 93 0
-95 -89 0
-95 94 0
95 89 -94 0
-96 -34 0
-96 93 0
96 34 -93 0
-97 -89 0
-97 -96 0
97 89 96 0
-98 72 0
-98 97 0
98 -72 -97 0
-99 -71 0
-99 97 0
99 71 -97 0
-100 41 0
-100 99 0
100 -41 -99 0
-101 -88 0
-101 -95 0
101 88 95 0
-102 -98 0
-102 101 0
102 98 -101 0
-103 -100 0
-103 102 0
103 100 -102 0
-104 9 0
-104 55 0
104 -9 -55 0
-105 4 0
-105 48 0
105 -4 -48 0
-106 50 0
-106 105 0
106 -50 -105 0
-107 -42 0
-107 106 0
107 42 -106 0
-108 4 0
-108 23 0
108 -4 -23 0
-109 17 0
-109 -67 0
109 -17 67 0
-110 -108 0
-110 -109 0
110 108 109 0
-111 26 0
-111 104 0
111 -26 -104 0
-112 -107 0
-112 -111 0
112 107 111 0
-113 110 0
-113 112 0
113 -110 -112 0
-114 30 0
-114 -113 0
-115 23 0
-115 27 0
115 -23 -27 0
-116 18 0
-116 -67 0
116 -18 67 0
-117 -115 0
-117 -116 0
117 115 116 0
-118 28 0
-118 104 0
118 -28 -104 0
-119 -107 0
-119 -118 0
119 107 118 0
-120 117 0
-120 119 0
120 -117 -119 0
-121 31 0
-121 -120 0
121 -31 120 0
-122 -31 0
-122 120 0
122 31 -120 0
-123 -82 0
-123 -103 0
123 82 103 0
-124 -83 0
-124 -123 0
124 83 123 0
-125 16 0
-125 36 0
-126 113 -30 0
-126 -113 30 0
126 113 30 0
126 -113 -30 0
-127 -122 0
-127 -124 0
127 122 124 0
-128 -121 0
-128 -127 0
128 121 127 0
-129 -128 126 0
-129 128 -126 0
-130 37 0
-130 129 0
131 125 130 0
-132 38 0
-132 126 0
-133 39 0
-133 114 0
134 132 133 0
-135 40 0
-135 -113 0
-136 30 0
-136 77 0
137 135 136 0
138 -131 -134 0
139 -137 -138 0
-139 0
